Optimal - objective value 34560.00000000
      1 x_0_1                    1                       0
      7 x_1_0                    1                       0
     20 x_2_6                    1                       0
     23 x_3_2                    1                       0
     33 x_4_5                    1                       0
     38 x_5_3                    1                       0
     46 x_6_4                    1                       0
     85 y_0_1_1_0                1                    7410
     96 y_0_1_2_6                1                    2175
     98 y_0_1_3_2                1                    2100
    107 y_0_1_4_5                1                    8294
    111 y_0_1_5_3                1                    2409
    118 y_0_1_6_4                1                    2816
    306 y_1_0_2_6                1                    1112
    308 y_1_0_3_2                1                    1090
    317 y_1_0_4_5                1                      58
    321 y_1_0_5_3                1                    1070
    328 y_1_0_6_4                1                     146
    657 y_2_6_3_2                1                     256
    666 y_2_6_4_5                1                     840
    670 y_2_6_5_3                1                     288
    677 y_2_6_6_4                1                     124
    719 y_3_2_4_5                1                     552
    723 y_3_2_5_3                1                     464
    730 y_3_2_6_4                1                     333
    868 y_4_5_5_3                1                    1224
    875 y_4_5_6_4                1                    1400
    910 y_5_3_6_4                1                     399
